26
1000 1000
556 219
299 411
881 204
892 660
956 973
901 497
72 366
549 985
736 911
490 87
854 957
219 321
546 15
392 721
488 662
482 474
24 811
88 86
40 490
459 514
681 892
485 616
171 448
255 484
914 748
464 434
